(set-logic QF_LIA)
(declare-fun x0 () Int)
(declare-fun x1 () Int)
(declare-fun x2 () Int)
(declare-fun x3 () Int)
(declare-fun x4 () Int)
(declare-fun x5 () Int)
(declare-fun x6 () Int)
(declare-fun x7 () Int)
(declare-fun x8 () Int)
(declare-fun x9 () Int)
(declare-fun A0 () Bool)
(declare-fun A1 () Bool)
(declare-fun A2 () Bool)
(declare-fun A3 () Bool)
(declare-fun A4 () Bool)
(declare-fun A5 () Bool)
(declare-fun A6 () Bool)
(declare-fun A7 () Bool)
(declare-fun A8 () Bool)
(declare-fun A9 () Bool)
(assert (let ((.def_0 (* 1 x0))) (let ((.def_1 (< .def_0 1))) (let ((.def_2 (not .def_1))) (let ((.def_3 (= .def_2 A6))) (let ((.def_4 (not .def_3))) (let ((.def_5 (= A9 A2))) (let ((.def_6 (not .def_5))) (let ((.def_7 (or .def_6 .def_4))) (let ((.def_8 (* 1 x6))) (let ((.def_9 (* (- 1) x0))) (let ((.def_10 (+ .def_9 .def_8))) (let ((.def_11 (< .def_10 (- 1)))) (let ((.def_12 (not .def_11))) (let ((.def_13 (* (- 1) x7))) (let ((.def_14 (* 1 x4))) (let ((.def_15 (+ .def_14 .def_13))) (let ((.def_16 (< .def_15 (- 1)))) (let ((.def_17 (not .def_16))) (let ((.def_18 (or .def_17 .def_12))) (let ((.def_19 (not .def_18))) (let ((.def_20 (* 1 x5))) (let ((.def_21 (< .def_20 1))) (let ((.def_22 (not .def_21))) (let ((.def_23 (not A5))) (let ((.def_24 (= .def_23 .def_22))) (let ((.def_25 (or .def_24 .def_19))) (let ((.def_26 (and .def_25 .def_7))) (let ((.def_27 (not .def_26))) (let ((.def_28 (not A6))) (let ((.def_29 (and A2 .def_28))) (let ((.def_30 (not .def_29))) (let ((.def_31 (not A7))) (let ((.def_32 (not A8))) (let ((.def_33 (or .def_32 .def_31))) (let ((.def_34 (not .def_33))) (let ((.def_35 (or .def_34 .def_30))) (let ((.def_36 (not .def_35))) (let ((.def_37 (not A9))) (let ((.def_38 (and .def_37 .def_2))) (let ((.def_39 (not .def_38))) (let ((.def_40 (* (- 1) x5))) (let ((.def_41 (* (- 1) x8))) (let ((.def_42 (+ .def_41 .def_40))) (let ((.def_43 (< .def_42 1))) (let ((.def_44 (= A7 .def_43))) (let ((.def_45 (or .def_44 .def_39))) (let ((.def_46 (not .def_45))) (let ((.def_47 (or .def_46 .def_36))) (let ((.def_48 (and .def_47 .def_27))) (let ((.def_49 (not .def_48))) (let ((.def_50 (< .def_0 (- 1)))) (let ((.def_51 (and .def_50 A4))) (let ((.def_52 (not A3))) (let ((.def_53 (not A2))) (let ((.def_54 (and .def_53 .def_52))) (let ((.def_55 (and .def_54 .def_51))) (let ((.def_56 (not .def_55))) (let ((.def_57 (* 1 x2))) (let ((.def_58 (* 1 x3))) (let ((.def_59 (+ .def_58 .def_57))) (let ((.def_60 (< .def_59 (- 1)))) (let ((.def_61 (not .def_60))) (let ((.def_62 (* 1 x8))) (let ((.def_63 (+ .def_58 .def_62))) (let ((.def_64 (< .def_63 (- 1)))) (let ((.def_65 (not .def_64))) (let ((.def_66 (or .def_65 .def_61))) (let ((.def_67 (not .def_66))) (let ((.def_68 (not A1))) (let ((.def_69 (+ .def_9 .def_14))) (let ((.def_70 (< .def_69 (- 1)))) (let ((.def_71 (not .def_70))) (let ((.def_72 (= .def_71 .def_68))) (let ((.def_73 (= .def_72 .def_67))) (let ((.def_74 (not .def_73))) (let ((.def_75 (and .def_74 .def_56))) (let ((.def_76 (not .def_75))) (let ((.def_77 (+ .def_14 .def_58))) (let ((.def_78 (< .def_77 (- 1)))) (let ((.def_79 (not .def_78))) (let ((.def_80 (and .def_79 A9))) (let ((.def_81 (not .def_80))) (let ((.def_82 (* (- 1) x3))) (let ((.def_83 (+ .def_82 .def_57))) (let ((.def_84 (< .def_83 (- 1)))) (let ((.def_85 (not .def_84))) (let ((.def_86 (or A1 .def_85))) (let ((.def_87 (not .def_86))) (let ((.def_88 (and .def_87 .def_81))) (let ((.def_89 (+ .def_14 .def_82))) (let ((.def_90 (< .def_89 (- 1)))) (let ((.def_91 (not .def_90))) (let ((.def_92 (and .def_91 A9))) (let ((.def_93 (* 1 x7))) (let ((.def_94 (+ .def_0 .def_93))) (let ((.def_95 (< .def_94 1))) (let ((.def_96 (and .def_95 .def_23))) (let ((.def_97 (not .def_96))) (let ((.def_98 (or .def_97 .def_92))) (let ((.def_99 (not .def_98))) (let ((.def_100 (or .def_99 .def_88))) (let ((.def_101 (and .def_100 .def_76))) (let ((.def_102 (or .def_101 .def_49))) (let ((.def_103 (not A4))) (let ((.def_104 (and .def_103 A7))) (let ((.def_105 (* 1 x1))) (let ((.def_106 (< .def_105 1))) (let ((.def_107 (and .def_32 .def_106))) (let ((.def_108 (not .def_107))) (let ((.def_109 (and .def_108 .def_104))) (let ((.def_110 (* (- 1) x4))) (let ((.def_111 (< .def_110 (- 1)))) (let ((.def_112 (not .def_111))) (let ((.def_113 (* (- 1) x2))) (let ((.def_114 (< .def_113 1))) (let ((.def_115 (not .def_114))) (let ((.def_116 (or .def_115 .def_112))) (let ((.def_117 (* (- 1) x9))) (let ((.def_118 (+ .def_117 .def_14))) (let ((.def_119 (< .def_118 1))) (let ((.def_120 (< .def_105 (- 1)))) (let ((.def_121 (or .def_120 .def_119))) (let ((.def_122 (not .def_121))) (let ((.def_123 (and .def_122 .def_116))) (let ((.def_124 (or .def_123 .def_109))) (let ((.def_125 (not .def_124))) (let ((.def_126 (< .def_20 (- 1)))) (let ((.def_127 (or .def_126 .def_120))) (let ((.def_128 (not .def_127))) (let ((.def_129 (+ .def_93 .def_58))) (let ((.def_130 (< .def_129 1))) (let ((.def_131 (or .def_130 A7))) (let ((.def_132 (or .def_131 .def_128))) (let ((.def_133 (* (- 1) x6))) (let ((.def_134 (< .def_133 1))) (let ((.def_135 (not .def_134))) (let ((.def_136 (+ .def_117 .def_13))) (let ((.def_137 (< .def_136 1))) (let ((.def_138 (or .def_137 .def_135))) (let ((.def_139 (not .def_138))) (let ((.def_140 (or .def_53 .def_52))) (let ((.def_141 (not .def_140))) (let ((.def_142 (or .def_141 .def_139))) (let ((.def_143 (not .def_142))) (let ((.def_144 (and .def_143 .def_132))) (let ((.def_145 (not .def_144))) (let ((.def_146 (and .def_145 .def_125))) (let ((.def_147 (not .def_146))) (let ((.def_148 (or A3 A8))) (let ((.def_149 (+ .def_20 .def_14))) (let ((.def_150 (< .def_149 (- 1)))) (let ((.def_151 (not .def_150))) (let ((.def_152 (+ .def_117 .def_20))) (let ((.def_153 (< .def_152 (- 1)))) (let ((.def_154 (or .def_153 .def_151))) (let ((.def_155 (= .def_154 .def_148))) (let ((.def_156 (not .def_155))) (let ((.def_157 (< .def_133 (- 1)))) (let ((.def_158 (not .def_157))) (let ((.def_159 (and .def_53 .def_158))) (let ((.def_160 (+ .def_58 .def_105))) (let ((.def_161 (< .def_160 1))) (let ((.def_162 (not .def_161))) (let ((.def_163 (or .def_28 .def_162))) (let ((.def_164 (not .def_163))) (let ((.def_165 (and .def_164 .def_159))) (let ((.def_166 (and .def_165 .def_156))) (let ((.def_167 (and .def_52 .def_32))) (let ((.def_168 (not .def_167))) (let ((.def_169 (+ .def_13 .def_0))) (let ((.def_170 (< .def_169 (- 1)))) (let ((.def_171 (not .def_170))) (let ((.def_172 (+ .def_9 .def_20))) (let ((.def_173 (< .def_172 (- 1)))) (let ((.def_174 (not .def_173))) (let ((.def_175 (= .def_174 .def_171))) (let ((.def_176 (or .def_175 .def_168))) (let ((.def_177 (< .def_117 (- 1)))) (let ((.def_178 (and .def_32 .def_177))) (let ((.def_179 (not .def_178))) (let ((.def_180 (+ .def_0 .def_133))) (let ((.def_181 (< .def_180 1))) (let ((.def_182 (not .def_181))) (let ((.def_183 (and .def_114 .def_182))) (let ((.def_184 (not .def_183))) (let ((.def_185 (or .def_184 .def_179))) (let ((.def_186 (not .def_185))) (let ((.def_187 (= .def_186 .def_176))) (let ((.def_188 (= .def_187 .def_166))) (let ((.def_189 (and .def_188 .def_147))) (let ((.def_190 (not .def_189))) (let ((.def_191 (or .def_190 .def_102))) (let ((.def_192 (+ .def_117 .def_105))) (let ((.def_193 (< .def_192 1))) (let ((.def_194 (not .def_193))) (let ((.def_195 (< .def_82 1))) (let ((.def_196 (or .def_195 .def_194))) (let ((.def_197 (and A2 .def_53))) (let ((.def_198 (and .def_197 .def_196))) (let ((.def_199 (+ .def_82 .def_133))) (let ((.def_200 (< .def_199 1))) (let ((.def_201 (< .def_63 1))) (let ((.def_202 (not .def_201))) (let ((.def_203 (and .def_202 .def_200))) (let ((.def_204 (* (- 1) x1))) (let ((.def_205 (+ .def_204 .def_0))) (let ((.def_206 (< .def_205 1))) (let ((.def_207 (not .def_206))) (let ((.def_208 (+ .def_204 .def_40))) (let ((.def_209 (< .def_208 (- 1)))) (let ((.def_210 (not .def_209))) (let ((.def_211 (= .def_210 .def_207))) (let ((.def_212 (and .def_211 .def_203))) (let ((.def_213 (not .def_212))) (let ((.def_214 (and .def_213 .def_198))) (let ((.def_215 (+ .def_20 .def_204))) (let ((.def_216 (< .def_215 (- 1)))) (let ((.def_217 (not .def_216))) (let ((.def_218 (and .def_103 .def_217))) (let ((.def_219 (+ .def_93 .def_20))) (let ((.def_220 (< .def_219 (- 1)))) (let ((.def_221 (not .def_220))) (let ((.def_222 (or .def_221 .def_120))) (let ((.def_223 (not .def_222))) (let ((.def_224 (or .def_223 .def_218))) (let ((.def_225 (not .def_224))) (let ((.def_226 (or .def_28 .def_68))) (let ((.def_227 (or .def_28 A4))) (let ((.def_228 (and .def_227 .def_226))) (let ((.def_229 (not .def_228))) (let ((.def_230 (or .def_229 .def_225))) (let ((.def_231 (and .def_230 .def_214))) (let ((.def_232 (or A8 .def_31))) (let ((.def_233 (not .def_232))) (let ((.def_234 (or .def_37 A3))) (let ((.def_235 (not .def_234))) (let ((.def_236 (or .def_235 .def_233))) (let ((.def_237 (or .def_68 A6))) (let ((.def_238 (not .def_237))) (let ((.def_239 (and A4 A1))) (let ((.def_240 (not .def_239))) (let ((.def_241 (and .def_240 .def_238))) (let ((.def_242 (and .def_241 .def_236))) (let ((.def_243 (not .def_242))) (let ((.def_244 (+ .def_13 .def_62))) (let ((.def_245 (< .def_244 (- 1)))) (let ((.def_246 (not .def_245))) (let ((.def_247 (or .def_246 .def_111))) (let ((.def_248 (< .def_40 (- 1)))) (let ((.def_249 (< .def_13 1))) (let ((.def_250 (and .def_249 .def_248))) (let ((.def_251 (not .def_250))) (let ((.def_252 (or .def_251 .def_247))) (let ((.def_253 (and .def_28 .def_31))) (let ((.def_254 (* 1 x9))) (let ((.def_255 (+ .def_254 .def_110))) (let ((.def_256 (< .def_255 1))) (let ((.def_257 (or A9 .def_256))) (let ((.def_258 (not .def_257))) (let ((.def_259 (and .def_258 .def_253))) (let ((.def_260 (or .def_259 .def_252))) (let ((.def_261 (or .def_260 .def_243))) (let ((.def_262 (and .def_261 .def_231))) (let ((.def_263 (not .def_262))) (let ((.def_264 (< .def_8 1))) (let ((.def_265 (and .def_264 A9))) (let ((.def_266 (not .def_265))) (let ((.def_267 (+ .def_13 .def_204))) (let ((.def_268 (< .def_267 1))) (let ((.def_269 (or A0 .def_268))) (let ((.def_270 (not .def_269))) (let ((.def_271 (and .def_270 .def_266))) (let ((.def_272 (< .def_117 1))) (let ((.def_273 (or A2 .def_272))) (let ((.def_274 (+ .def_41 .def_0))) (let ((.def_275 (< .def_274 (- 1)))) (let ((.def_276 (not .def_275))) (let ((.def_277 (+ .def_82 .def_204))) (let ((.def_278 (< .def_277 1))) (let ((.def_279 (not .def_278))) (let ((.def_280 (or .def_279 .def_276))) (let ((.def_281 (not .def_280))) (let ((.def_282 (or .def_281 .def_273))) (let ((.def_283 (not .def_282))) (let ((.def_284 (or .def_283 .def_271))) (let ((.def_285 (not .def_284))) (let ((.def_286 (+ .def_58 .def_14))) (let ((.def_287 (< .def_286 (- 1)))) (let ((.def_288 (not .def_287))) (let ((.def_289 (< .def_204 1))) (let ((.def_290 (not .def_289))) (let ((.def_291 (and .def_290 .def_288))) (let ((.def_292 (< .def_14 1))) (let ((.def_293 (not .def_292))) (let ((.def_294 (+ .def_8 .def_58))) (let ((.def_295 (< .def_294 1))) (let ((.def_296 (or .def_295 .def_293))) (let ((.def_297 (not .def_296))) (let ((.def_298 (and .def_297 .def_291))) (let ((.def_299 (not .def_298))) (let ((.def_300 (not A0))) (let ((.def_301 (or A3 .def_300))) (let ((.def_302 (+ .def_20 .def_110))) (let ((.def_303 (< .def_302 1))) (let ((.def_304 (and .def_303 .def_37))) (let ((.def_305 (and .def_304 .def_301))) (let ((.def_306 (not .def_305))) (let ((.def_307 (= .def_306 .def_299))) (let ((.def_308 (not .def_307))) (let ((.def_309 (or .def_308 .def_285))) (let ((.def_310 (not .def_309))) (let ((.def_311 (or .def_68 A3))) (let ((.def_312 (< .def_57 (- 1)))) (let ((.def_313 (or A6 .def_312))) (let ((.def_314 (not .def_313))) (let ((.def_315 (or .def_314 .def_311))) (let ((.def_316 (not .def_315))) (let ((.def_317 (or A5 A6))) (let ((.def_318 (not .def_317))) (let ((.def_319 (+ .def_204 .def_57))) (let ((.def_320 (< .def_319 (- 1)))) (let ((.def_321 (not .def_320))) (let ((.def_322 (or A1 .def_321))) (let ((.def_323 (not .def_322))) (let ((.def_324 (= .def_323 .def_318))) (let ((.def_325 (and .def_324 .def_316))) (let ((.def_326 (< .def_9 1))) (let ((.def_327 (and A8 .def_326))) (let ((.def_328 (and A2 A8))) (let ((.def_329 (not .def_328))) (let ((.def_330 (or .def_329 .def_327))) (let ((.def_331 (not .def_330))) (let ((.def_332 (+ .def_105 .def_82))) (let ((.def_333 (< .def_332 1))) (let ((.def_334 (or .def_1 .def_333))) (let ((.def_335 (+ .def_133 .def_82))) (let ((.def_336 (< .def_335 1))) (let ((.def_337 (not .def_336))) (let ((.def_338 (and .def_337 .def_120))) (let ((.def_339 (or .def_338 .def_334))) (let ((.def_340 (not .def_339))) (let ((.def_341 (= .def_340 .def_331))) (let ((.def_342 (and .def_341 .def_325))) (let ((.def_343 (or .def_342 .def_310))) (let ((.def_344 (and .def_343 .def_263))) (let ((.def_345 (not .def_344))) (let ((.def_346 (or .def_345 .def_191))) (let ((.def_347 (<= x9 1))) (let ((.def_348 (<= 0 x9))) (let ((.def_349 (<= x8 1))) (let ((.def_350 (<= 0 x8))) (let ((.def_351 (<= x7 1))) (let ((.def_352 (<= 0 x7))) (let ((.def_353 (<= x6 1))) (let ((.def_354 (<= 0 x6))) (let ((.def_355 (<= x5 1))) (let ((.def_356 (<= 0 x5))) (let ((.def_357 (<= x4 1))) (let ((.def_358 (<= 0 x4))) (let ((.def_359 (<= x3 1))) (let ((.def_360 (<= 0 x3))) (let ((.def_361 (<= x2 1))) (let ((.def_362 (<= 0 x2))) (let ((.def_363 (<= x1 1))) (let ((.def_364 (<= 0 x1))) (let ((.def_365 (<= x0 1))) (let ((.def_366 (<= 0 x0))) (let ((.def_367 (and .def_366 .def_365 .def_364 .def_363 .def_362 .def_361 .def_360 .def_359 .def_358 .def_357 .def_356 .def_355 .def_354 .def_353 .def_352 .def_351 .def_350 .def_349 .def_348 .def_347 .def_346))) .def_367)))))))))))))))))))))))))))))))))))))))))))))))))))))))))))))))))))))))))))))))))))))))))))))))))))))))))))))))))))))))))))))))))))))))))))))))))))))))))))))))))))))))))))))))))))))))))))))))))))))))))))))))))))))))))))))))))))))))))))))))))))))))))))))))))))))))))))))))))))))))))))))))))))))))))))))))))))))))))))))))))))))))))))))))))))))))))))))))))))))))))))))))))
(check-sat)
